
## This part is human-generated
conv_tol             = 1.0d-10
conv_window          = 10
conv_noise_amp       = 0.20
conv_noise_num       = 10
precond              = .false.

num_print_cycles     = 100
num_iter             = 1000
dis_num_iter         = 4000
dis_mix_ratio        = 0.200
dis_conv_tol         = 1.0d-10

dis_win_max          =   9.87
dis_win_min          =   5.77
!dis_froz_max         =   8.77
!dis_froz_min         =   4.47

guiding_centres      = .true.
use_ws_distance      = .true.
write_proj           = .true.
write_xyz            = .true.
translate_home_cell  = .true.
begin projections
Ni:dx2-y2
end projections


bands_plot = T
bands_num_points = 40
begin kpoint_path        !! Fractional coordinates
   G  0.00000  0.00000  0.00000    X 0.00000  0.50000  0.00000
   X  0.00000  0.50000  0.00000    M 0.50000  0.50000  0.00000
   M  0.50000  0.50000  0.00000    G 0.00000  0.00000  0.00000
   G  0.00000  0.0000   0.00000    Z 0.00000  0.00000  0.50000
   Z  0.00000  0.00000  0.50000    R 0.00000  0.50000  0.50000
   R  0.00000  0.50000  0.50000    A 0.50000  0.50000  0.50000
   A  0.50000  0.50000  0.50000    Z 0.00000  0.00000  0.50000
end kpoint_path

fermi_surface_plot = .true.
fermi_surface_num_points = 60
fermi_energy = 7.170427

write_hr = .true.

# This part was generated automatically by VASP
num_bands = 96
num_wann = 1
begin unit_cell_cart
     3.8263834     0.0000000     0.0000000
     0.0000000     3.8263834     0.0000000
     0.0000000     0.0000000     3.2045856
end unit_cell_cart
begin atoms_cart
Pr       0.0000000     0.0000000     0.0000000
Sr       0.0000000     0.0000000     0.0000000
Ni       1.9131917     1.9131917     1.6022928
O        0.0000000     1.9131917     1.6022928
O        1.9131917     0.0000000     1.6022928
end atoms_cart
mp_grid =     8     8    12
begin kpoints
      0.000000000000      0.000000000000      0.000000000000
      0.125000000000      0.000000000000      0.000000000000
      0.250000000000      0.000000000000      0.000000000000
      0.375000000000      0.000000000000      0.000000000000
      0.500000000000      0.000000000000      0.000000000000
      0.125000000000      0.125000000000      0.000000000000
      0.250000000000      0.125000000000      0.000000000000
      0.375000000000      0.125000000000      0.000000000000
      0.500000000000      0.125000000000      0.000000000000
      0.250000000000      0.250000000000      0.000000000000
      0.375000000000      0.250000000000      0.000000000000
      0.500000000000      0.250000000000      0.000000000000
      0.375000000000      0.375000000000      0.000000000000
      0.500000000000      0.375000000000      0.000000000000
      0.500000000000      0.500000000000      0.000000000000
      0.000000000000      0.000000000000      0.083333333333
      0.125000000000      0.000000000000      0.083333333333
      0.250000000000      0.000000000000      0.083333333333
      0.375000000000      0.000000000000      0.083333333333
      0.500000000000      0.000000000000      0.083333333333
      0.125000000000      0.125000000000      0.083333333333
      0.250000000000      0.125000000000      0.083333333333
      0.375000000000      0.125000000000      0.083333333333
      0.500000000000      0.125000000000      0.083333333333
      0.250000000000      0.250000000000      0.083333333333
      0.375000000000      0.250000000000      0.083333333333
      0.500000000000      0.250000000000      0.083333333333
      0.375000000000      0.375000000000      0.083333333333
      0.500000000000      0.375000000000      0.083333333333
      0.500000000000      0.500000000000      0.083333333333
      0.000000000000      0.000000000000      0.166666666667
      0.125000000000      0.000000000000      0.166666666667
      0.250000000000      0.000000000000      0.166666666667
      0.375000000000      0.000000000000      0.166666666667
      0.500000000000      0.000000000000      0.166666666667
      0.125000000000      0.125000000000      0.166666666667
      0.250000000000      0.125000000000      0.166666666667
      0.375000000000      0.125000000000      0.166666666667
      0.500000000000      0.125000000000      0.166666666667
      0.250000000000      0.250000000000      0.166666666667
      0.375000000000      0.250000000000      0.166666666667
      0.500000000000      0.250000000000      0.166666666667
      0.375000000000      0.375000000000      0.166666666667
      0.500000000000      0.375000000000      0.166666666667
      0.500000000000      0.500000000000      0.166666666667
      0.000000000000      0.000000000000      0.250000000000
      0.125000000000      0.000000000000      0.250000000000
      0.250000000000      0.000000000000      0.250000000000
      0.375000000000      0.000000000000      0.250000000000
      0.500000000000      0.000000000000      0.250000000000
      0.125000000000      0.125000000000      0.250000000000
      0.250000000000      0.125000000000      0.250000000000
      0.375000000000      0.125000000000      0.250000000000
      0.500000000000      0.125000000000      0.250000000000
      0.250000000000      0.250000000000      0.250000000000
      0.375000000000      0.250000000000      0.250000000000
      0.500000000000      0.250000000000      0.250000000000
      0.375000000000      0.375000000000      0.250000000000
      0.500000000000      0.375000000000      0.250000000000
      0.500000000000      0.500000000000      0.250000000000
      0.000000000000      0.000000000000      0.333333333333
      0.125000000000      0.000000000000      0.333333333333
      0.250000000000      0.000000000000      0.333333333333
      0.375000000000      0.000000000000      0.333333333333
      0.500000000000      0.000000000000      0.333333333333
      0.125000000000      0.125000000000      0.333333333333
      0.250000000000      0.125000000000      0.333333333333
      0.375000000000      0.125000000000      0.333333333333
      0.500000000000      0.125000000000      0.333333333333
      0.250000000000      0.250000000000      0.333333333333
      0.375000000000      0.250000000000      0.333333333333
      0.500000000000      0.250000000000      0.333333333333
      0.375000000000      0.375000000000      0.333333333333
      0.500000000000      0.375000000000      0.333333333333
      0.500000000000      0.500000000000      0.333333333333
      0.000000000000      0.000000000000      0.416666666667
      0.125000000000      0.000000000000      0.416666666667
      0.250000000000      0.000000000000      0.416666666667
      0.375000000000      0.000000000000      0.416666666667
      0.500000000000      0.000000000000      0.416666666667
      0.125000000000      0.125000000000      0.416666666667
      0.250000000000      0.125000000000      0.416666666667
      0.375000000000      0.125000000000      0.416666666667
      0.500000000000      0.125000000000      0.416666666667
      0.250000000000      0.250000000000      0.416666666667
      0.375000000000      0.250000000000      0.416666666667
      0.500000000000      0.250000000000      0.416666666667
      0.375000000000      0.375000000000      0.416666666667
      0.500000000000      0.375000000000      0.416666666667
      0.500000000000      0.500000000000      0.416666666667
      0.000000000000      0.000000000000      0.500000000000
      0.125000000000      0.000000000000      0.500000000000
      0.250000000000      0.000000000000      0.500000000000
      0.375000000000      0.000000000000      0.500000000000
      0.500000000000      0.000000000000      0.500000000000
      0.125000000000      0.125000000000      0.500000000000
      0.250000000000      0.125000000000      0.500000000000
      0.375000000000      0.125000000000      0.500000000000
      0.500000000000      0.125000000000      0.500000000000
      0.250000000000      0.250000000000      0.500000000000
      0.375000000000      0.250000000000      0.500000000000
      0.500000000000      0.250000000000      0.500000000000
      0.375000000000      0.375000000000      0.500000000000
      0.500000000000      0.375000000000      0.500000000000
      0.500000000000      0.500000000000      0.500000000000
     -0.125000000000      0.000000000000      0.000000000000
      0.000000000000      0.125000000000      0.000000000000
      0.000000000000     -0.125000000000      0.000000000000
     -0.250000000000      0.000000000000      0.000000000000
      0.000000000000      0.250000000000      0.000000000000
      0.000000000000     -0.250000000000      0.000000000000
     -0.375000000000      0.000000000000      0.000000000000
      0.000000000000      0.375000000000      0.000000000000
      0.000000000000     -0.375000000000      0.000000000000
      0.000000000000      0.500000000000      0.000000000000
     -0.125000000000     -0.125000000000      0.000000000000
     -0.125000000000      0.125000000000      0.000000000000
      0.125000000000     -0.125000000000      0.000000000000
     -0.250000000000     -0.125000000000      0.000000000000
     -0.125000000000      0.250000000000      0.000000000000
      0.125000000000     -0.250000000000      0.000000000000
     -0.250000000000      0.125000000000      0.000000000000
      0.250000000000     -0.125000000000      0.000000000000
      0.125000000000      0.250000000000      0.000000000000
     -0.125000000000     -0.250000000000      0.000000000000
     -0.375000000000     -0.125000000000      0.000000000000
     -0.125000000000      0.375000000000      0.000000000000
      0.125000000000     -0.375000000000      0.000000000000
     -0.375000000000      0.125000000000      0.000000000000
      0.375000000000     -0.125000000000      0.000000000000
      0.125000000000      0.375000000000      0.000000000000
     -0.125000000000     -0.375000000000      0.000000000000
     -0.500000000000     -0.125000000000      0.000000000000
     -0.125000000000      0.500000000000      0.000000000000
      0.125000000000     -0.500000000000      0.000000000000
     -0.250000000000     -0.250000000000      0.000000000000
     -0.250000000000      0.250000000000      0.000000000000
      0.250000000000     -0.250000000000      0.000000000000
     -0.375000000000     -0.250000000000      0.000000000000
     -0.250000000000      0.375000000000      0.000000000000
      0.250000000000     -0.375000000000      0.000000000000
     -0.375000000000      0.250000000000      0.000000000000
      0.375000000000     -0.250000000000      0.000000000000
      0.250000000000      0.375000000000      0.000000000000
     -0.250000000000     -0.375000000000      0.000000000000
     -0.500000000000     -0.250000000000      0.000000000000
     -0.250000000000      0.500000000000      0.000000000000
      0.250000000000     -0.500000000000      0.000000000000
     -0.375000000000     -0.375000000000      0.000000000000
     -0.375000000000      0.375000000000      0.000000000000
      0.375000000000     -0.375000000000      0.000000000000
     -0.500000000000     -0.375000000000      0.000000000000
     -0.375000000000      0.500000000000      0.000000000000
      0.375000000000     -0.500000000000      0.000000000000
      0.000000000000      0.000000000000     -0.083333333333
     -0.125000000000      0.000000000000     -0.083333333333
      0.000000000000      0.125000000000      0.083333333333
      0.000000000000     -0.125000000000     -0.083333333333
     -0.125000000000      0.000000000000      0.083333333333
      0.125000000000      0.000000000000     -0.083333333333
      0.000000000000     -0.125000000000      0.083333333333
      0.000000000000      0.125000000000     -0.083333333333
     -0.250000000000      0.000000000000     -0.083333333333
      0.000000000000      0.250000000000      0.083333333333
      0.000000000000     -0.250000000000     -0.083333333333
     -0.250000000000      0.000000000000      0.083333333333
      0.250000000000      0.000000000000     -0.083333333333
      0.000000000000     -0.250000000000      0.083333333333
      0.000000000000      0.250000000000     -0.083333333333
     -0.375000000000      0.000000000000     -0.083333333333
      0.000000000000      0.375000000000      0.083333333333
      0.000000000000     -0.375000000000     -0.083333333333
     -0.375000000000      0.000000000000      0.083333333333
      0.375000000000      0.000000000000     -0.083333333333
      0.000000000000     -0.375000000000      0.083333333333
      0.000000000000      0.375000000000     -0.083333333333
     -0.500000000000      0.000000000000     -0.083333333333
      0.000000000000      0.500000000000      0.083333333333
      0.000000000000     -0.500000000000     -0.083333333333
     -0.125000000000     -0.125000000000     -0.083333333333
     -0.125000000000      0.125000000000      0.083333333333
      0.125000000000     -0.125000000000     -0.083333333333
     -0.125000000000     -0.125000000000      0.083333333333
      0.125000000000      0.125000000000     -0.083333333333
      0.125000000000     -0.125000000000      0.083333333333
     -0.125000000000      0.125000000000     -0.083333333333
     -0.250000000000     -0.125000000000     -0.083333333333
     -0.125000000000      0.250000000000      0.083333333333
      0.125000000000     -0.250000000000     -0.083333333333
     -0.250000000000     -0.125000000000      0.083333333333
      0.250000000000      0.125000000000     -0.083333333333
      0.125000000000     -0.250000000000      0.083333333333
     -0.125000000000      0.250000000000     -0.083333333333
     -0.250000000000      0.125000000000     -0.083333333333
      0.250000000000     -0.125000000000      0.083333333333
      0.125000000000      0.250000000000     -0.083333333333
     -0.125000000000     -0.250000000000      0.083333333333
      0.250000000000     -0.125000000000     -0.083333333333
     -0.250000000000      0.125000000000      0.083333333333
     -0.125000000000     -0.250000000000     -0.083333333333
      0.125000000000      0.250000000000      0.083333333333
     -0.375000000000     -0.125000000000     -0.083333333333
     -0.125000000000      0.375000000000      0.083333333333
      0.125000000000     -0.375000000000     -0.083333333333
     -0.375000000000     -0.125000000000      0.083333333333
      0.375000000000      0.125000000000     -0.083333333333
      0.125000000000     -0.375000000000      0.083333333333
     -0.125000000000      0.375000000000     -0.083333333333
     -0.375000000000      0.125000000000     -0.083333333333
      0.375000000000     -0.125000000000      0.083333333333
      0.125000000000      0.375000000000     -0.083333333333
     -0.125000000000     -0.375000000000      0.083333333333
      0.375000000000     -0.125000000000     -0.083333333333
     -0.375000000000      0.125000000000      0.083333333333
     -0.125000000000     -0.375000000000     -0.083333333333
      0.125000000000      0.375000000000      0.083333333333
     -0.500000000000     -0.125000000000     -0.083333333333
     -0.125000000000      0.500000000000      0.083333333333
      0.125000000000     -0.500000000000     -0.083333333333
     -0.500000000000     -0.125000000000      0.083333333333
      0.500000000000      0.125000000000     -0.083333333333
      0.125000000000     -0.500000000000      0.083333333333
     -0.125000000000      0.500000000000     -0.083333333333
     -0.250000000000     -0.250000000000     -0.083333333333
     -0.250000000000      0.250000000000      0.083333333333
      0.250000000000     -0.250000000000     -0.083333333333
     -0.250000000000     -0.250000000000      0.083333333333
      0.250000000000      0.250000000000     -0.083333333333
      0.250000000000     -0.250000000000      0.083333333333
     -0.250000000000      0.250000000000     -0.083333333333
     -0.375000000000     -0.250000000000     -0.083333333333
     -0.250000000000      0.375000000000      0.083333333333
      0.250000000000     -0.375000000000     -0.083333333333
     -0.375000000000     -0.250000000000      0.083333333333
      0.375000000000      0.250000000000     -0.083333333333
      0.250000000000     -0.375000000000      0.083333333333
     -0.250000000000      0.375000000000     -0.083333333333
     -0.375000000000      0.250000000000     -0.083333333333
      0.375000000000     -0.250000000000      0.083333333333
      0.250000000000      0.375000000000     -0.083333333333
     -0.250000000000     -0.375000000000      0.083333333333
      0.375000000000     -0.250000000000     -0.083333333333
     -0.375000000000      0.250000000000      0.083333333333
     -0.250000000000     -0.375000000000     -0.083333333333
      0.250000000000      0.375000000000      0.083333333333
     -0.500000000000     -0.250000000000     -0.083333333333
     -0.250000000000      0.500000000000      0.083333333333
      0.250000000000     -0.500000000000     -0.083333333333
     -0.500000000000     -0.250000000000      0.083333333333
      0.500000000000      0.250000000000     -0.083333333333
      0.250000000000     -0.500000000000      0.083333333333
     -0.250000000000      0.500000000000     -0.083333333333
     -0.375000000000     -0.375000000000     -0.083333333333
     -0.375000000000      0.375000000000      0.083333333333
      0.375000000000     -0.375000000000     -0.083333333333
     -0.375000000000     -0.375000000000      0.083333333333
      0.375000000000      0.375000000000     -0.083333333333
      0.375000000000     -0.375000000000      0.083333333333
     -0.375000000000      0.375000000000     -0.083333333333
     -0.500000000000     -0.375000000000     -0.083333333333
     -0.375000000000      0.500000000000      0.083333333333
      0.375000000000     -0.500000000000     -0.083333333333
     -0.500000000000     -0.375000000000      0.083333333333
      0.500000000000      0.375000000000     -0.083333333333
      0.375000000000     -0.500000000000      0.083333333333
     -0.375000000000      0.500000000000     -0.083333333333
     -0.500000000000     -0.500000000000     -0.083333333333
      0.000000000000      0.000000000000     -0.166666666667
     -0.125000000000      0.000000000000     -0.166666666667
      0.000000000000      0.125000000000      0.166666666667
      0.000000000000     -0.125000000000     -0.166666666667
     -0.125000000000      0.000000000000      0.166666666667
      0.125000000000      0.000000000000     -0.166666666667
      0.000000000000     -0.125000000000      0.166666666667
      0.000000000000      0.125000000000     -0.166666666667
     -0.250000000000      0.000000000000     -0.166666666667
      0.000000000000      0.250000000000      0.166666666667
      0.000000000000     -0.250000000000     -0.166666666667
     -0.250000000000      0.000000000000      0.166666666667
      0.250000000000      0.000000000000     -0.166666666667
      0.000000000000     -0.250000000000      0.166666666667
      0.000000000000      0.250000000000     -0.166666666667
     -0.375000000000      0.000000000000     -0.166666666667
      0.000000000000      0.375000000000      0.166666666667
      0.000000000000     -0.375000000000     -0.166666666667
     -0.375000000000      0.000000000000      0.166666666667
      0.375000000000      0.000000000000     -0.166666666667
      0.000000000000     -0.375000000000      0.166666666667
      0.000000000000      0.375000000000     -0.166666666667
     -0.500000000000      0.000000000000     -0.166666666667
      0.000000000000      0.500000000000      0.166666666667
      0.000000000000     -0.500000000000     -0.166666666667
     -0.125000000000     -0.125000000000     -0.166666666667
     -0.125000000000      0.125000000000      0.166666666667
      0.125000000000     -0.125000000000     -0.166666666667
     -0.125000000000     -0.125000000000      0.166666666667
      0.125000000000      0.125000000000     -0.166666666667
      0.125000000000     -0.125000000000      0.166666666667
     -0.125000000000      0.125000000000     -0.166666666667
     -0.250000000000     -0.125000000000     -0.166666666667
     -0.125000000000      0.250000000000      0.166666666667
      0.125000000000     -0.250000000000     -0.166666666667
     -0.250000000000     -0.125000000000      0.166666666667
      0.250000000000      0.125000000000     -0.166666666667
      0.125000000000     -0.250000000000      0.166666666667
     -0.125000000000      0.250000000000     -0.166666666667
     -0.250000000000      0.125000000000     -0.166666666667
      0.250000000000     -0.125000000000      0.166666666667
      0.125000000000      0.250000000000     -0.166666666667
     -0.125000000000     -0.250000000000      0.166666666667
      0.250000000000     -0.125000000000     -0.166666666667
     -0.250000000000      0.125000000000      0.166666666667
     -0.125000000000     -0.250000000000     -0.166666666667
      0.125000000000      0.250000000000      0.166666666667
     -0.375000000000     -0.125000000000     -0.166666666667
     -0.125000000000      0.375000000000      0.166666666667
      0.125000000000     -0.375000000000     -0.166666666667
     -0.375000000000     -0.125000000000      0.166666666667
      0.375000000000      0.125000000000     -0.166666666667
      0.125000000000     -0.375000000000      0.166666666667
     -0.125000000000      0.375000000000     -0.166666666667
     -0.375000000000      0.125000000000     -0.166666666667
      0.375000000000     -0.125000000000      0.166666666667
      0.125000000000      0.375000000000     -0.166666666667
     -0.125000000000     -0.375000000000      0.166666666667
      0.375000000000     -0.125000000000     -0.166666666667
     -0.375000000000      0.125000000000      0.166666666667
     -0.125000000000     -0.375000000000     -0.166666666667
      0.125000000000      0.375000000000      0.166666666667
     -0.500000000000     -0.125000000000     -0.166666666667
     -0.125000000000      0.500000000000      0.166666666667
      0.125000000000     -0.500000000000     -0.166666666667
     -0.500000000000     -0.125000000000      0.166666666667
      0.500000000000      0.125000000000     -0.166666666667
      0.125000000000     -0.500000000000      0.166666666667
     -0.125000000000      0.500000000000     -0.166666666667
     -0.250000000000     -0.250000000000     -0.166666666667
     -0.250000000000      0.250000000000      0.166666666667
      0.250000000000     -0.250000000000     -0.166666666667
     -0.250000000000     -0.250000000000      0.166666666667
      0.250000000000      0.250000000000     -0.166666666667
      0.250000000000     -0.250000000000      0.166666666667
     -0.250000000000      0.250000000000     -0.166666666667
     -0.375000000000     -0.250000000000     -0.166666666667
     -0.250000000000      0.375000000000      0.166666666667
      0.250000000000     -0.375000000000     -0.166666666667
     -0.375000000000     -0.250000000000      0.166666666667
      0.375000000000      0.250000000000     -0.166666666667
      0.250000000000     -0.375000000000      0.166666666667
     -0.250000000000      0.375000000000     -0.166666666667
     -0.375000000000      0.250000000000     -0.166666666667
      0.375000000000     -0.250000000000      0.166666666667
      0.250000000000      0.375000000000     -0.166666666667
     -0.250000000000     -0.375000000000      0.166666666667
      0.375000000000     -0.250000000000     -0.166666666667
     -0.375000000000      0.250000000000      0.166666666667
     -0.250000000000     -0.375000000000     -0.166666666667
      0.250000000000      0.375000000000      0.166666666667
     -0.500000000000     -0.250000000000     -0.166666666667
     -0.250000000000      0.500000000000      0.166666666667
      0.250000000000     -0.500000000000     -0.166666666667
     -0.500000000000     -0.250000000000      0.166666666667
      0.500000000000      0.250000000000     -0.166666666667
      0.250000000000     -0.500000000000      0.166666666667
     -0.250000000000      0.500000000000     -0.166666666667
     -0.375000000000     -0.375000000000     -0.166666666667
     -0.375000000000      0.375000000000      0.166666666667
      0.375000000000     -0.375000000000     -0.166666666667
     -0.375000000000     -0.375000000000      0.166666666667
      0.375000000000      0.375000000000     -0.166666666667
      0.375000000000     -0.375000000000      0.166666666667
     -0.375000000000      0.375000000000     -0.166666666667
     -0.500000000000     -0.375000000000     -0.166666666667
     -0.375000000000      0.500000000000      0.166666666667
      0.375000000000     -0.500000000000     -0.166666666667
     -0.500000000000     -0.375000000000      0.166666666667
      0.500000000000      0.375000000000     -0.166666666667
      0.375000000000     -0.500000000000      0.166666666667
     -0.375000000000      0.500000000000     -0.166666666667
     -0.500000000000     -0.500000000000     -0.166666666667
      0.000000000000      0.000000000000     -0.250000000000
     -0.125000000000      0.000000000000     -0.250000000000
      0.000000000000      0.125000000000      0.250000000000
      0.000000000000     -0.125000000000     -0.250000000000
     -0.125000000000      0.000000000000      0.250000000000
      0.125000000000      0.000000000000     -0.250000000000
      0.000000000000     -0.125000000000      0.250000000000
      0.000000000000      0.125000000000     -0.250000000000
     -0.250000000000      0.000000000000     -0.250000000000
      0.000000000000      0.250000000000      0.250000000000
      0.000000000000     -0.250000000000     -0.250000000000
     -0.250000000000      0.000000000000      0.250000000000
      0.250000000000      0.000000000000     -0.250000000000
      0.000000000000     -0.250000000000      0.250000000000
      0.000000000000      0.250000000000     -0.250000000000
     -0.375000000000      0.000000000000     -0.250000000000
      0.000000000000      0.375000000000      0.250000000000
      0.000000000000     -0.375000000000     -0.250000000000
     -0.375000000000      0.000000000000      0.250000000000
      0.375000000000      0.000000000000     -0.250000000000
      0.000000000000     -0.375000000000      0.250000000000
      0.000000000000      0.375000000000     -0.250000000000
     -0.500000000000      0.000000000000     -0.250000000000
      0.000000000000      0.500000000000      0.250000000000
      0.000000000000     -0.500000000000     -0.250000000000
     -0.125000000000     -0.125000000000     -0.250000000000
     -0.125000000000      0.125000000000      0.250000000000
      0.125000000000     -0.125000000000     -0.250000000000
     -0.125000000000     -0.125000000000      0.250000000000
      0.125000000000      0.125000000000     -0.250000000000
      0.125000000000     -0.125000000000      0.250000000000
     -0.125000000000      0.125000000000     -0.250000000000
     -0.250000000000     -0.125000000000     -0.250000000000
     -0.125000000000      0.250000000000      0.250000000000
      0.125000000000     -0.250000000000     -0.250000000000
     -0.250000000000     -0.125000000000      0.250000000000
      0.250000000000      0.125000000000     -0.250000000000
      0.125000000000     -0.250000000000      0.250000000000
     -0.125000000000      0.250000000000     -0.250000000000
     -0.250000000000      0.125000000000     -0.250000000000
      0.250000000000     -0.125000000000      0.250000000000
      0.125000000000      0.250000000000     -0.250000000000
     -0.125000000000     -0.250000000000      0.250000000000
      0.250000000000     -0.125000000000     -0.250000000000
     -0.250000000000      0.125000000000      0.250000000000
     -0.125000000000     -0.250000000000     -0.250000000000
      0.125000000000      0.250000000000      0.250000000000
     -0.375000000000     -0.125000000000     -0.250000000000
     -0.125000000000      0.375000000000      0.250000000000
      0.125000000000     -0.375000000000     -0.250000000000
     -0.375000000000     -0.125000000000      0.250000000000
      0.375000000000      0.125000000000     -0.250000000000
      0.125000000000     -0.375000000000      0.250000000000
     -0.125000000000      0.375000000000     -0.250000000000
     -0.375000000000      0.125000000000     -0.250000000000
      0.375000000000     -0.125000000000      0.250000000000
      0.125000000000      0.375000000000     -0.250000000000
     -0.125000000000     -0.375000000000      0.250000000000
      0.375000000000     -0.125000000000     -0.250000000000
     -0.375000000000      0.125000000000      0.250000000000
     -0.125000000000     -0.375000000000     -0.250000000000
      0.125000000000      0.375000000000      0.250000000000
     -0.500000000000     -0.125000000000     -0.250000000000
     -0.125000000000      0.500000000000      0.250000000000
      0.125000000000     -0.500000000000     -0.250000000000
     -0.500000000000     -0.125000000000      0.250000000000
      0.500000000000      0.125000000000     -0.250000000000
      0.125000000000     -0.500000000000      0.250000000000
     -0.125000000000      0.500000000000     -0.250000000000
     -0.250000000000     -0.250000000000     -0.250000000000
     -0.250000000000      0.250000000000      0.250000000000
      0.250000000000     -0.250000000000     -0.250000000000
     -0.250000000000     -0.250000000000      0.250000000000
      0.250000000000      0.250000000000     -0.250000000000
      0.250000000000     -0.250000000000      0.250000000000
     -0.250000000000      0.250000000000     -0.250000000000
     -0.375000000000     -0.250000000000     -0.250000000000
     -0.250000000000      0.375000000000      0.250000000000
      0.250000000000     -0.375000000000     -0.250000000000
     -0.375000000000     -0.250000000000      0.250000000000
      0.375000000000      0.250000000000     -0.250000000000